NAME : s-18_t.-433.tour
COMMENT : Length = -433
COMMENT : Found by LKH [Keld Helsgaun] Sun Apr 13 17:05:01 2025
TYPE : TOUR
DIMENSION : 18
TOUR_SECTION
1
3
15
2
9
13
11
7
17
10
8
18
12
16
6
5
14
4
-1
EOF
